\ENCODING=ISO-8859-1
\Problem name: IloCplex

Maximize
 obj1:
Subject To
 c1: 100 x_1 + 100 x_2 + 100 x_3 + 96 x_4 + 95 x_5 + 93 x_6 + 86 x_7 + 82 x_8
     + 82 x_9 + 80 x_10 + 79 x_11 + 75 x_12 + 73 x_13 + 71 x_14 + 71 x_15
     + 70 x_16 + 69 x_17 + 69 x_18 + 68 x_19 + 63 x_20 + 60 x_21 + 59 x_22
     + 58 x_23 + 56 x_24 + 53 x_25 + 52 x_26 + 50 x_27 + 45 x_28 + 44 x_29
     + 44 x_30 + 43 x_31 + 42 x_32 + 37 x_33 + 37 x_34 + 36 x_35 + 36 x_36
     + 35 x_37 + 31 x_38 + 30 x_39 + 30 x_40 + 29 x_41 + 28 x_42 + 28 x_43
     + 27 x_44 + 27 x_45 + 22 x_46 + 21 x_47 + 21 x_48 + 20 x_49 + 20 x_50
     <= 100
Bounds
 0 <= x_1 <= 1
 0 <= x_2 <= 1
 0 <= x_3 <= 1
 0 <= x_4 <= 1
 0 <= x_5 <= 1
 0 <= x_6 <= 1
 0 <= x_7 <= 1
 0 <= x_8 <= 1
 0 <= x_9 <= 1
 0 <= x_10 <= 1
 0 <= x_11 <= 1
 0 <= x_12 <= 1
 0 <= x_13 <= 1
 0 <= x_14 <= 1
 0 <= x_15 <= 1
 0 <= x_16 <= 1
 0 <= x_17 <= 1
 0 <= x_18 <= 1
 0 <= x_19 <= 1
 0 <= x_20 <= 1
 0 <= x_21 <= 1
 0 <= x_22 <= 1
 0 <= x_23 <= 1
 0 <= x_24 <= 1
 0 <= x_25 <= 1
 0 <= x_26 <= 1
 0 <= x_27 <= 1
 0 <= x_28 <= 1
 0 <= x_29 <= 1
 0 <= x_30 <= 1
 0 <= x_31 <= 1
 0 <= x_32 <= 1
 0 <= x_33 <= 1
 0 <= x_34 <= 1
 0 <= x_35 <= 1
 0 <= x_36 <= 1
 0 <= x_37 <= 1
 0 <= x_38 <= 1
 0 <= x_39 <= 1
 0 <= x_40 <= 1
 0 <= x_41 <= 1
 0 <= x_42 <= 1
 0 <= x_43 <= 1
 0 <= x_44 <= 1
 0 <= x_45 <= 1
 0 <= x_46 <= 1
 0 <= x_47 <= 1
 0 <= x_48 <= 1
 0 <= x_49 <= 1
 0 <= x_50 <= 1
Binaries
 x_1  x_2  x_3  x_4  x_5  x_6  x_7  x_8  x_9  x_10  x_11  x_12  x_13  x_14 
 x_15  x_16  x_17  x_18  x_19  x_20  x_21  x_22  x_23  x_24  x_25  x_26  x_27 
 x_28  x_29  x_30  x_31  x_32  x_33  x_34  x_35  x_36  x_37  x_38  x_39  x_40 
 x_41  x_42  x_43  x_44  x_45  x_46  x_47  x_48  x_49  x_50 
End
